3 -1 8 9 8 -1 
8 5 2 3 -1 
0 8 8 8 3 3 9 -1 
8 4 8 3 1 -1 -1 
4 5 -1 3 9 -1 
-1 1 4 6 7 0 9 8 -1 
3 1 1 5 -1 
7 8 -1 8 0 7 9 -1 
-1 -1 5 2 3 6 -1 6 -1 
2 3 3 2 0 1 6 5 -1 
8 -1 5 -1 4 -1 -1 
-1 -1 1 7 -1 -1 
1 -1 9 8 2 8 -1 
7 9 9 4 2 4 -1 
2 9 9 8 8 4 -1 
